0 26 
1 27 
2 30 
3 31 
4 32 
5 34 
6 31 
7 31 
8 29 
9 27 
10 25 
11 25 
12 24 
13 24 
14 23 
15 23 
16 22 
17 19 
18 16 
19 13 
20 13 
21 14 
22 12 
23 8 
24 10 
25 10 
26 10 
27 9 
28 9 
29 6 
30 7 
31 6 
32 7 
33 6 
34 3 
35 2 
36 3 
37 2 
38 3 
39 2 
40 2 
41 0 
42 0 

